\ Model Routes
\ LP format - for model browsing. Use MPS format to capture full model detail.
Maximize
  1533.228206194839 R{0,0} + 2591.679024458567 R{0,1}
   + 2591.679024458567 R{0,2} - 249.2301939667805 R{0,3}
   - 31.82321499385571 R{0,4} + 638.834524368017 R{0,5}
   + 40.33553989466429 R{0,6} + 1345.791701234423 R{0,7}
   + 2055.129858231485 R{0,8} + 2294.564065021042 R{0,9}
   + 2165.245693042834 R{0,10} + 2764.197012211668 R{0,11}
   + 266.5543487895431 R{0,12} + 1584.784790411174 R{0,13}
   + 1652.163287466873 R{0,14} + 1204.382076752782 R{0,15}
   + 1444.340812906657 R{0,16} + 2047.555288144013 R{0,17}
   + 1839.206973447298 R{0,18} + 1930.452493260636 R{0,19}
   + 1649.989185802868 R{0,20} + 1615.877247088891 R{0,21}
   + 1986.617031733094 R{0,22} + 2138.203374784006 R{0,23}
   + 1763.373439239781 R{0,24} + 2235.828052872431 R{0,25}
   + 1461.376026709214 R{0,26} - 256.140831891889 R{1,0}
   + 1.421024720507319 R{1,1} + 699.1132125037707 R{1,2}
   + 798.8022804397758 R{1,3} + 544.0669767572493 R{1,4}
   + 223.5535695116518 R{1,5} + 544.0669767572493 R{1,6}
   + 223.5535695116518 R{1,7} + 798.8022804397758 R{1,8}
   + 239.0485817925679 R{1,9} - 278.4443928850388 R{2,0}
   + 355.5628375470975 R{2,1} + 1452.269829909344 R{2,2}
   + 1452.269829909344 R{2,3} + 933.9687073786708 R{2,4}
   + 36.92082797562006 R{2,5} + 709.7316892843273 R{2,6}
   + 775.6918497929551 R{2,7} + 698.6090025660994 R{2,8}
   + 771.6418745557676 R{2,9} + 846.5776695814457 R{2,10}
   + 929.7864129157663 R{2,11} + 549.2713121421644 R{2,12}
   + 659.1691194175145 R{2,13} + 706.9992616751318 R{2,14}
   + 548.5008915757182 R{2,15} + 826.7806546380259 R{2,16}
   - 260.2482995389823 R{3,0} + 361.081176854884 R{3,1}
   + 761.0503024230281 R{3,2} + 529.0367651376541 R{3,3}
   + 606.1516297340863 R{3,4} + 411.0554575520694 R{3,5}
   + 933.9651209851472 R{3,6} + 1140.410813513929 R{3,7}
   + 540.4563129620251 R{3,8} + 600.7268374793834 R{3,9}
   + 890.4511578329837 R{3,10} + 341.0906404514678 R{3,11}
   + 728.820643385226 R{3,12} + 571.3530063533516 R{3,13}
   + 439.299545528504 R{3,14} - 242.5208875955131 R{4,0}
   + 1055.572474837385 R{4,1} + 1576.196574514046 R{4,2}
   + 591.2123980004542 R{4,3} + 2039.10049209481 R{4,4}
   + 718.5016969194101 R{4,5} + 998.1714153678329 R{4,6}
   + 657.8723811056568 R{4,7} + 1614.759663885629 R{4,8}
   + 854.1619013854686 R{4,9} + 893.6783946752951 R{4,10}
   + 461.6253712325976 R{4,11} + 1365.326677281656 R{4,12}
   + 1113.846742449485 R{4,13} + 1922.572546721536 R{4,14}
   + 1283.458164888138 R{4,15} + 1061.812733557137 R{4,16}
   + 653.5058678988478 R{4,17} + 1681.90426036797 R{4,18}
   + 653.5058678988478 R{4,19} + 635.4872555318159 R{4,20}
   + 1000.639484356373 R{4,21} + 1677.537747161161 R{4,22}
   + 1567.404995727686 R{4,23} + 1427.515206076762 R{4,24}
   + 1676.343953102432 R{4,25} + 647.2925788527343 R{4,26}
   + 653.5058678988478 R{4,27} + 2176.714103681359 R{4,28}
   - 231.9775664337766 R{5,0} + 326.98460213128 R{5,1}
   + 1480.650475450034 R{5,2} + 1480.650475450034 R{5,3}
   + 614.5947142962621 R{5,4} + 483.2944006459898 R{5,5}
   + 1510.397030710985 R{5,6} + 650.8810299351385 R{5,7}
   + 572.6151383323298 R{5,8} + 1759.608942348162 R{5,9}
   + 1270.379498152741 R{5,10} + 1840.240845733358 R{5,11}
   + 894.3569672855288 R{5,12} + 1010.815080787486 R{5,13}
   + 554.6026709924315 R{5,14} + 1682.416731827764 R{5,15}
   + 745.8188110173147 R{5,16} - 231.1436095783099 R{6,0}
   + 1195.286596672249 R{6,1} + 2138.911397941406 R{6,2}
   + 2560.066428814385 R{6,3} + 1422.709994582291 R{6,4}
   + 1603.432185882507 R{6,5} + 1536.184035874615 R{6,6}
   + 2150.076670500603 R{6,7} + 2501.994071608777 R{6,8}
   + 1420.522962675155 R{6,9} + 2124.445868359801 R{6,10}
   + 1799.576569301748 R{6,11} + 2501.994071608777 R{6,12}
   + 2520.878007762263 R{6,13} + 2441.687151611004 R{6,14}
   + 2040.687964387707 R{6,15} + 1617.070303155487 R{6,16}
   + 1622.510902539595 R{6,17} + 1860.391837729968 R{6,18}
   + 1482.565425817081 R{6,19} + 1078.923021732316 R{6,20}
   + 1716.021920096756 R{6,21} + 2493.607996540769 R{6,22}
   + 2054.672872292366 R{6,23}
Subject To
 R00: R{0,0} <= 1
 R01: R{0,1} <= 1
 R02: R{0,2} <= 1
 R03: R{0,3} <= 1
 R04: R{0,4} <= 1
 R05: R{0,5} <= 1
 R06: R{0,6} <= 1
 R07: R{0,7} <= 1
 R08: R{0,8} <= 1
 R09: R{0,9} <= 1
 R010: R{0,10} <= 1
 R011: R{0,11} <= 1
 R012: R{0,12} <= 1
 R013: R{0,13} <= 1
 R014: R{0,14} <= 1
 R015: R{0,15} <= 1
 R016: R{0,16} <= 1
 R017: R{0,17} <= 1
 R018: R{0,18} <= 1
 R019: R{0,19} <= 1
 R020: R{0,20} <= 1
 R021: R{0,21} <= 1
 R022: R{0,22} <= 1
 R023: R{0,23} <= 1
 R024: R{0,24} <= 1
 R025: R{0,25} <= 1
 R026: R{0,26} <= 1
 R027: R{1,0} <= 1
 R028: R{1,1} <= 1
 R029: R{1,2} <= 1
 R030: R{1,3} <= 1
 R031: R{1,4} <= 1
 R032: R{1,5} <= 1
 R033: R{1,6} <= 1
 R034: R{1,7} <= 1
 R035: R{1,8} <= 1
 R036: R{1,9} <= 1
 R037: R{2,0} <= 1
 R038: R{2,1} <= 1
 R039: R{2,2} <= 1
 R040: R{2,3} <= 1
 R041: R{2,4} <= 1
 R042: R{2,5} <= 1
 R043: R{2,6} <= 1
 R044: R{2,7} <= 1
 R045: R{2,8} <= 1
 R046: R{2,9} <= 1
 R047: R{2,10} <= 1
 R048: R{2,11} <= 1
 R049: R{2,12} <= 1
 R050: R{2,13} <= 1
 R051: R{2,14} <= 1
 R052: R{2,15} <= 1
 R053: R{2,16} <= 1
 R054: R{3,0} <= 1
 R055: R{3,1} <= 1
 R056: R{3,2} <= 1
 R057: R{3,3} <= 1
 R058: R{3,4} <= 1
 R059: R{3,5} <= 1
 R060: R{3,6} <= 1
 R061: R{3,7} <= 1
 R062: R{3,8} <= 1
 R063: R{3,9} <= 1
 R064: R{3,10} <= 1
 R065: R{3,11} <= 1
 R066: R{3,12} <= 1
 R067: R{3,13} <= 1
 R068: R{3,14} <= 1
 R069: R{4,0} <= 1
 R070: R{4,1} <= 1
 R071: R{4,2} <= 1
 R072: R{4,3} <= 1
 R073: R{4,4} <= 1
 R074: R{4,5} <= 1
 R075: R{4,6} <= 1
 R076: R{4,7} <= 1
 R077: R{4,8} <= 1
 R078: R{4,9} <= 1
 R079: R{4,10} <= 1
 R080: R{4,11} <= 1
 R081: R{4,12} <= 1
 R082: R{4,13} <= 1
 R083: R{4,14} <= 1
 R084: R{4,15} <= 1
 R085: R{4,16} <= 1
 R086: R{4,17} <= 1
 R087: R{4,18} <= 1
 R088: R{4,19} <= 1
 R089: R{4,20} <= 1
 R090: R{4,21} <= 1
 R091: R{4,22} <= 1
 R092: R{4,23} <= 1
 R093: R{4,24} <= 1
 R094: R{4,25} <= 1
 R095: R{4,26} <= 1
 R096: R{4,27} <= 1
 R097: R{4,28} <= 1
 R098: R{5,0} <= 1
 R099: R{5,1} <= 1
 R0100: R{5,2} <= 1
 R0101: R{5,3} <= 1
 R0102: R{5,4} <= 1
 R0103: R{5,5} <= 1
 R0104: R{5,6} <= 1
 R0105: R{5,7} <= 1
 R0106: R{5,8} <= 1
 R0107: R{5,9} <= 1
 R0108: R{5,10} <= 1
 R0109: R{5,11} <= 1
 R0110: R{5,12} <= 1
 R0111: R{5,13} <= 1
 R0112: R{5,14} <= 1
 R0113: R{5,15} <= 1
 R0114: R{5,16} <= 1
 R0115: R{6,0} <= 1
 R0116: R{6,1} <= 1
 R0117: R{6,2} <= 1
 R0118: R{6,3} <= 1
 R0119: R{6,4} <= 1
 R0120: R{6,5} <= 1
 R0121: R{6,6} <= 1
 R0122: R{6,7} <= 1
 R0123: R{6,8} <= 1
 R0124: R{6,9} <= 1
 R0125: R{6,10} <= 1
 R0126: R{6,11} <= 1
 R0127: R{6,12} <= 1
 R0128: R{6,13} <= 1
 R0129: R{6,14} <= 1
 R0130: R{6,15} <= 1
 R0131: R{6,16} <= 1
 R0132: R{6,17} <= 1
 R0133: R{6,18} <= 1
 R0134: R{6,19} <= 1
 R0135: R{6,20} <= 1
 R0136: R{6,21} <= 1
 R0137: R{6,22} <= 1
 R0138: R{6,23} <= 1
 R1_0: R{0,0} + R{0,1} + R{0,2} + R{0,3} + R{0,4} + R{0,5} + R{0,6}
   + R{0,7} + R{0,8} + R{0,9} + R{0,10} + R{0,11} + R{0,12} + R{0,13}
   + R{0,14} + R{0,15} + R{0,16} + R{0,17} + R{0,18} + R{0,19} + R{0,20}
   + R{0,21} + R{0,22} + R{0,23} + R{0,24} + R{0,25} + R{0,26} <= 1
 R1_1: R{1,0} + R{1,1} + R{1,2} + R{1,3} + R{1,4} + R{1,5} + R{1,6}
   + R{1,7} + R{1,8} + R{1,9} <= 1
 R1_2: R{2,0} + R{2,1} + R{2,2} + R{2,3} + R{2,4} + R{2,5} + R{2,6}
   + R{2,7} + R{2,8} + R{2,9} + R{2,10} + R{2,11} + R{2,12} + R{2,13}
   + R{2,14} + R{2,15} + R{2,16} <= 1
 R1_3: R{3,0} + R{3,1} + R{3,2} + R{3,3} + R{3,4} + R{3,5} + R{3,6}
   + R{3,7} + R{3,8} + R{3,9} + R{3,10} + R{3,11} + R{3,12} + R{3,13}
   + R{3,14} <= 1
 R1_4: R{4,0} + R{4,1} + R{4,2} + R{4,3} + R{4,4} + R{4,5} + R{4,6}
   + R{4,7} + R{4,8} + R{4,9} + R{4,10} + R{4,11} + R{4,12} + R{4,13}
   + R{4,14} + R{4,15} + R{4,16} + R{4,17} + R{4,18} + R{4,19} + R{4,20}
   + R{4,21} + R{4,22} + R{4,23} + R{4,24} + R{4,25} + R{4,26} + R{4,27}
   + R{4,28} <= 1
 R1_5: R{5,0} + R{5,1} + R{5,2} + R{5,3} + R{5,4} + R{5,5} + R{5,6}
   + R{5,7} + R{5,8} + R{5,9} + R{5,10} + R{5,11} + R{5,12} + R{5,13}
   + R{5,14} + R{5,15} + R{5,16} <= 1
 R1_6: R{6,0} + R{6,1} + R{6,2} + R{6,3} + R{6,4} + R{6,5} + R{6,6}
   + R{6,7} + R{6,8} + R{6,9} + R{6,10} + R{6,11} + R{6,12} + R{6,13}
   + R{6,14} + R{6,15} + R{6,16} + R{6,17} + R{6,18} + R{6,19} + R{6,20}
   + R{6,21} + R{6,22} + R{6,23} <= 1
 R2_0: 7 R{0,0} + 7 R{0,1} + 7 R{0,2} + 7 R{0,8} + 7 R{0,9} + 7 R{0,10}
   + 7 R{0,11} + 7 R{0,13} + 7 R{0,14} + 7 R{0,15} + 7 R{0,16} + 7 R{0,17}
   + 7 R{0,18} + 7 R{0,19} + 7 R{0,20} + 7 R{0,21} + 7 R{0,22} + 7 R{0,23}
   + 7 R{0,24} + 7 R{0,25} + 7 R{0,26} <= 7
 R2_1: 10 R{0,6} + 10 R{0,9} + 10 R{0,11} + 10 R{0,24} + 10 R{2,1}
   + 10 R{2,2} + 10 R{2,3} + 10 R{2,4} + 10 R{2,6} + 10 R{2,7} + 10 R{2,8}
   + 10 R{2,9} + 10 R{2,11} + 10 R{2,12} + 10 R{2,16} + 10 R{6,14}
   + 10 R{6,16} <= 10
 R2_2: <= 0
 R2_3: 4 R{2,1} + 4 R{2,2} + 4 R{2,3} + 4 R{2,4} + 4 R{2,5} + 4 R{2,8}
   + 4 R{2,10} + 4 R{2,12} + 4 R{2,13} + 4 R{2,14} <= 4
 R2_4: <= 0
 R2_5: 5 R{0,4} + 5 R{0,5} + 3 R{5,2} + 3 R{5,3} + 3 R{5,6} + 5 R{5,7}
   + 3 R{5,9} + 3 R{5,10} + 5 R{5,12} + 3 R{5,15} <= 5
 R2_6: 10 R{1,1} + 10 R{1,2} + 10 R{1,3} + 10 R{1,4} + 10 R{1,6}
   + 10 R{1,8} + 10 R{1,9} + 10 R{2,9} + 10 R{2,16} + 10 R{5,7} + 10 R{5,9}
   + 10 R{5,11} + 10 R{5,12} <= 10
 R2_7: 6 R{1,1} + 6 R{1,2} + 6 R{1,3} + 6 R{1,4} + 6 R{1,6} + 6 R{1,8}
   + 6 R{1,9} <= 6
 R2_8: <= 0
 R2_9: 12 R{4,1} + 12 R{4,2} + 12 R{4,3} + 12 R{4,4} + 12 R{4,5}
   + 12 R{4,6} + 12 R{4,7} + 12 R{4,8} + 12 R{4,9} + 12 R{4,10}
   + 12 R{4,11} + 12 R{4,12} + 12 R{4,13} + 12 R{4,14} + 12 R{4,15}
   + 12 R{4,16} + 12 R{4,17} + 12 R{4,18} + 12 R{4,19} + 12 R{4,20}
   + 12 R{4,21} + 12 R{4,22} + 12 R{4,24} + 12 R{4,25} + 12 R{4,27} <= 12
 R2_10: 8 R{0,26} + 8 R{6,1} + 8 R{6,2} + 8 R{6,5} + 8 R{6,6} <= 8
 R2_11: 15 R{0,26} + 15 R{4,28} <= 15
 R2_12: <= 0
 R2_13: <= 0
 R2_14: <= 0
 R2_15: 11 R{0,0} + 11 R{0,1} + 11 R{0,2} + 11 R{0,8} + 11 R{0,10}
   + 11 R{0,14} + 11 R{0,15} + 11 R{0,16} + 11 R{0,17} + 11 R{0,19}
   + 11 R{0,20} + 11 R{0,23} + 11 R{4,1} + 11 R{4,2} + 11 R{4,3}
   + 11 R{4,5} + 11 R{4,8} <= 11
 R2_16: 5 R{6,21} + 5 R{6,23} <= 5
 R2_17: <= 0
 R2_18: <= 0
 R2_19: 11 R{2,11} + 11 R{3,2} + 11 R{3,7} + 11 R{3,10} + 11 R{4,1}
   + 11 R{4,2} + 11 R{4,4} + 11 R{4,8} + 11 R{4,12} + 11 R{4,18}
   + 11 R{4,22} + 11 R{4,24} <= 11
 R2_20: 13 R{0,7} + 13 R{0,16} + 13 R{1,4} + 13 R{1,5} + 13 R{1,6}
   + 13 R{1,7} + 13 R{2,7} + 13 R{3,4} + 13 R{4,6} + 13 R{4,14}
   + 13 R{4,16} + 13 R{5,5} + 13 R{5,8} + 13 R{6,1} + 13 R{6,2} + 13 R{6,3}
   + 8 R{6,4} + 13 R{6,5} + 13 R{6,6} + 13 R{6,7} + 13 R{6,8} + 13 R{6,10}
   + 13 R{6,12} + 13 R{6,18} + 13 R{6,21} + 13 R{6,22} + 13 R{6,23} <= 13
 R2_21: <= 0
 R2_22: 10 R{0,23} + 10 R{4,21} <= 10
 R2_23: 14 R{0,18} + 14 R{0,21} + 14 R{4,4} + 14 R{4,12} + 14 R{4,13}
   + 14 R{4,18} + 14 R{4,21} + 14 R{4,22} + 14 R{6,3} + 12 R{6,7}
   + 12 R{6,10} + 12 R{6,11} + 14 R{6,13} + 14 R{6,14} + 14 R{6,15}
   + 12 R{6,17} <= 14
 R2_24: 10 R{0,10} + 10 R{0,23} + 10 R{0,25} + 10 R{2,12} + 10 R{2,13}
   + 10 R{3,1} + 10 R{3,2} + 10 R{3,4} + 10 R{3,5} + 10 R{3,7} + 10 R{3,9}
   + 10 R{3,11} + 10 R{4,15} + 10 R{4,16} + 10 R{6,17} <= 10
 R2_25: 13 R{0,0} + 13 R{0,1} + 13 R{0,2} + 13 R{0,8} + 13 R{0,9}
   + 13 R{0,10} + 13 R{0,11} + 13 R{0,13} + 13 R{0,14} + 13 R{0,15}
   + 13 R{0,16} + 13 R{0,17} + 13 R{0,18} + 13 R{0,19} + 13 R{0,20}
   + 13 R{0,21} + 13 R{0,22} + 5 R{0,23} + 13 R{0,24} + 13 R{0,25}
   + 13 R{0,26} + 13 R{4,1} + 13 R{4,2} + 13 R{4,3} + 13 R{4,4} + 13 R{4,5}
   + 13 R{4,6} + 13 R{4,7} + 13 R{4,8} + 13 R{4,10} + 13 R{4,12}
   + 13 R{4,13} + 13 R{4,14} + 13 R{4,15} + 13 R{4,16} + 13 R{4,17}
   + 13 R{4,18} + 13 R{4,19} + 13 R{4,20} + 13 R{4,22} + 13 R{4,23}
   + 13 R{4,24} + 13 R{4,25} + 13 R{4,27} + 13 R{4,28} <= 13
 R2_26: 6 R{0,12} + 6 R{2,15} + 6 R{5,1} + 6 R{5,2} + 6 R{5,3} + 6 R{5,4}
   + 6 R{5,5} + 6 R{5,7} + 6 R{5,8} + 6 R{5,10} + 6 R{5,12} + 6 R{5,13}
   + 6 R{5,14} + 6 R{5,15} + 6 R{5,16} <= 6
 R2_27: 5 R{0,13} + 5 R{0,17} + 5 R{0,21} + 5 R{0,23} + 5 R{2,2} + 5 R{2,3}
   + 5 R{2,4} + 5 R{2,8} + 5 R{2,9} + 5 R{2,11} + 5 R{2,13} + 5 R{2,14}
   + 5 R{2,16} + 5 R{3,13} + 5 R{3,14} + 5 R{4,10} + 5 R{4,14} + 5 R{4,23}
   + 5 R{4,25} + 5 R{4,28} + 5 R{5,2} + 5 R{5,3} + 5 R{5,4} + 5 R{5,6}
   + 5 R{5,9} + 5 R{5,11} + 5 R{5,13} + 5 R{5,14} + 5 R{5,15} + 5 R{6,1}
   + 5 R{6,2} + 5 R{6,3} + 5 R{6,4} + 5 R{6,5} + 5 R{6,6} + 5 R{6,7}
   + 5 R{6,8} + 5 R{6,9} + 5 R{6,10} + 5 R{6,11} + 5 R{6,12} + 5 R{6,13}
   + 5 R{6,14} + 5 R{6,15} + 5 R{6,16} + 5 R{6,17} + 5 R{6,18} + 5 R{6,19}
   + 5 R{6,20} + 5 R{6,21} + 5 R{6,22} + 5 R{6,23} <= 5
 R2_28: <= 0
 R2_29: <= 0
 R2_30: <= 0
 R2_31: <= 0
 R2_32: 7 R{5,1} + 7 R{5,2} + 7 R{5,3} + 7 R{5,4} + 7 R{5,6} + 7 R{5,7}
   + 7 R{5,9} + 7 R{5,10} + 7 R{5,11} + 7 R{5,12} + 7 R{5,13} + 7 R{5,14}
   + 7 R{5,15} + 7 R{5,16} <= 7
 R2_33: 12 R{3,11} <= 12
 R2_34: 5 R{0,0} + 5 R{0,1} + 5 R{0,2} + 5 R{0,8} + 5 R{0,9} + 5 R{0,10}
   + 5 R{0,11} + 5 R{0,13} + 5 R{0,14} + 5 R{0,15} + 5 R{0,16} + 5 R{0,17}
   + 5 R{0,18} + 5 R{0,19} + 5 R{0,20} + 5 R{0,21} + 5 R{0,22} + 5 R{0,23}
   + 5 R{0,24} + 5 R{0,25} + 5 R{0,26} <= 5
 R2_35: <= 0
 R2_36: 15 R{5,1} + 15 R{5,2} + 15 R{5,3} + 15 R{5,4} + 15 R{5,5}
   + 15 R{5,7} + 15 R{5,8} <= 16
 R2_37: 5 R{2,15} + 5 R{3,1} + 5 R{3,2} + 5 R{3,3} + 5 R{3,5} + 5 R{3,7}
   + 5 R{3,8} + 5 R{3,9} + 5 R{3,10} + 5 R{3,12} + 5 R{3,13} + 5 R{3,14}
   <= 5
 R2_38: <= 0
 R2_39: 15 R{0,0} + 15 R{0,1} + 15 R{0,2} + 15 R{0,9} + 15 R{0,10}
   + 15 R{0,11} + 15 R{0,13} + 15 R{0,14} + 15 R{0,15} + 15 R{0,16}
   + 15 R{0,17} + 15 R{0,19} + 15 R{0,23} + 15 R{0,24} + 15 R{0,25} <= 17
 R2_40: 15 R{0,7} + 15 R{0,24} + 15 R{2,1} + 15 R{2,2} + 15 R{2,3}
   + 15 R{2,5} + 15 R{2,7} + 15 R{2,8} + 15 R{2,11} + 15 R{2,12}
   + 15 R{2,13} + 15 R{2,14} + 15 R{2,16} + 15 R{4,28} <= 15
 R2_41: 5 R{0,0} + 5 R{0,1} + 5 R{0,2} + 5 R{0,8} + 5 R{0,11} + 5 R{0,13}
   + 5 R{0,17} + 5 R{0,19} + 5 R{0,22} + 5 R{2,4} + 5 R{3,3} + 5 R{3,6}
   + 5 R{3,7} + 5 R{3,8} + 5 R{3,10} + 5 R{3,12} + 5 R{4,9} + 5 R{4,11}
   + 5 R{4,17} + 5 R{4,19} + 5 R{4,20} + 5 R{4,22} + 5 R{4,27} + 5 R{6,18}
   <= 5
 R2_42: 4 R{2,1} + 4 R{2,2} + 4 R{2,3} + 4 R{2,4} + 4 R{2,5} + 4 R{2,7}
   + 4 R{2,8} + 4 R{2,9} + 4 R{2,10} + 4 R{2,12} + 4 R{2,13} + 4 R{2,14}
   <= 4
 R2_43: <= 0
 R2_44: <= 0
 R2_45: <= 0
 R2_46: 9 R{0,8} + 9 R{0,20} + 9 R{0,22} + 9 R{4,24} + 9 R{6,22} <= 9
 R2_47: 7 R{0,0} + 7 R{0,1} + 7 R{0,2} + 7 R{0,10} + 7 R{0,14} + 7 R{0,19}
   + 7 R{0,20} + 7 R{5,1} + 7 R{5,2} + 7 R{5,3} + 7 R{5,4} + 7 R{5,6}
   + 7 R{5,7} + 7 R{5,10} + 7 R{5,12} + 7 R{5,14} + 7 R{5,16} <= 7
 R2_48: 4 R{0,22} + 4 R{4,1} + 4 R{4,2} + 4 R{4,3} + 4 R{4,4} + 4 R{4,5}
   + 4 R{4,6} + 4 R{4,7} + 4 R{4,8} + 4 R{4,9} + 4 R{4,10} + 4 R{4,11}
   + 4 R{4,12} + 4 R{4,14} + 4 R{4,15} + 4 R{4,16} + 4 R{4,17} + 4 R{4,18}
   + 4 R{4,19} + 4 R{4,22} + 4 R{4,23} + 4 R{4,24} + 4 R{4,25} + 4 R{4,27}
   <= 4
 R2_49: <= 0
 R2_50: <= 0
 R2_51: 11 R{2,15} + 10 R{5,16} + 11 R{6,20} <= 11
 R2_52: 10 R{4,20} + 10 R{4,26} + 10 R{4,28} <= 10
 R2_53: 13 R{4,1} + 13 R{4,2} + 13 R{4,3} + 13 R{4,4} + 13 R{4,5}
   + 13 R{4,6} + 13 R{4,8} + 13 R{4,9} + 13 R{4,10} + 13 R{4,12}
   + 13 R{4,14} + 13 R{4,15} + 13 R{4,16} + 13 R{4,23} + 13 R{4,24} <= 13
 R2_54: 9 R{3,1} + 9 R{3,2} + 9 R{3,3} + 9 R{3,5} + 9 R{3,6} + 9 R{3,7}
   + 9 R{3,8} + 9 R{3,10} <= 9
 R2_55: 8 R{6,1} + 8 R{6,2} + 8 R{6,3} + 8 R{6,4} + 8 R{6,6} + 8 R{6,7}
   + 8 R{6,8} + 8 R{6,9} + 8 R{6,10} + 8 R{6,11} + 8 R{6,12} + 8 R{6,13}
   + 8 R{6,14} + 8 R{6,15} + 8 R{6,16} + 8 R{6,17} + 8 R{6,19} + 8 R{6,20}
   + 8 R{6,21} + 8 R{6,22} + 8 R{6,23} <= 8
 R2_56: 6 R{0,1} + 6 R{0,2} + 6 R{0,8} + 6 R{0,9} + 6 R{0,10} + 6 R{0,11}
   + 6 R{0,14} + 6 R{0,17} + 6 R{0,18} + 6 R{0,19} + 6 R{0,20} + 6 R{0,22}
   + 6 R{0,23} + 6 R{0,24} + 6 R{0,25} + 6 R{0,26} + 6 R{4,7} + 6 R{4,13}
   + 6 R{4,18} + 6 R{4,26} + 6 R{6,4} + 6 R{6,6} + 6 R{6,9} + 6 R{6,11}
   + 6 R{6,15} <= 6
 R2_57: <= 0
 R2_58: <= 0
 R2_59: 10 R{4,21} + 10 R{4,25} + 10 R{4,28} + 10 R{6,19} + 10 R{6,20}
   <= 10
 R2_60: <= 0
 R2_61: 9 R{4,23} + 9 R{4,28} <= 9
 R2_62: <= 0
 R2_63: <= 0
 R2_64: <= 0
 R2_65: 5 R{0,15} + 5 R{6,1} + 5 R{6,2} + 5 R{6,3} + 5 R{6,4} + 5 R{6,5}
   + 5 R{6,6} + 5 R{6,7} + 5 R{6,8} + 5 R{6,9} + 5 R{6,10} + 5 R{6,11}
   + 5 R{6,12} + 5 R{6,13} + 5 R{6,14} + 5 R{6,15} + 5 R{6,16} + 5 R{6,17}
   + 5 R{6,18} + 5 R{6,19} + 5 R{6,20} + 5 R{6,21} + 5 R{6,22} + 5 R{6,23}
   <= 5
 R2_66: 7 R{1,9} + 7 R{5,11} + 7 R{5,13} + 7 R{6,1} + 7 R{6,2} + 7 R{6,3}
   + 7 R{6,4} + 7 R{6,6} + 7 R{6,7} + 7 R{6,8} + 7 R{6,9} + 7 R{6,11}
   + 7 R{6,12} + 7 R{6,13} + 7 R{6,14} + 7 R{6,15} + 7 R{6,16} + 7 R{6,19}
   + 7 R{6,22} + 7 R{6,23} <= 7
 R2_67: 3 R{0,14} + 3 R{0,15} + 3 R{0,18} + 3 R{0,21} + 3 R{0,23}
   + 3 R{0,25} + 3 R{0,26} + 3 R{4,26} + 3 R{6,7} + 3 R{6,8} + 3 R{6,9}
   + 3 R{6,10} + 3 R{6,11} + 3 R{6,12} + 3 R{6,13} + 3 R{6,15} + 3 R{6,16}
   + 3 R{6,17} + 3 R{6,18} + 3 R{6,19} + 3 R{6,21} + 3 R{6,23} <= 3
 R2_68: 6 R{4,1} + 6 R{4,5} + 6 R{4,9} + 6 R{4,10} + 6 R{4,24} + 6 R{6,2}
   + 6 R{6,3} + 6 R{6,7} + 6 R{6,8} + 6 R{6,12} + 6 R{6,13} + 6 R{6,14}
   + 6 R{6,15} + 6 R{6,16} + 6 R{6,19} + 6 R{6,20} + 6 R{6,22} + 6 R{6,23}
   <= 6
 R2_69: 7 R{0,0} + 7 R{0,1} + 7 R{0,2} + 7 R{0,8} + 7 R{0,9} + 7 R{0,11}
   + 7 R{0,14} + 7 R{0,16} + 7 R{0,18} + 7 R{0,19} + 7 R{0,20} + 7 R{0,24}
   + 7 R{4,1} + 7 R{4,2} + 7 R{4,3} + 7 R{4,4} + 7 R{4,5} + 7 R{4,6}
   + 7 R{4,8} + 7 R{4,9} + 7 R{4,12} + 7 R{4,13} + 7 R{4,18} + 7 R{4,21}
   + 7 R{4,22} + 7 R{4,24} <= 7
 R2_70: 11 R{1,1} + 11 R{1,2} + 11 R{1,3} + 11 R{1,8} <= 11
 R2_71: 7 R{3,1} + 7 R{3,2} + 7 R{3,3} + 7 R{3,4} + 7 R{3,5} + 7 R{3,7}
   + 7 R{3,8} + 7 R{3,9} + 7 R{3,10} + 7 R{3,11} + 7 R{3,12} + 7 R{3,14}
   <= 7
 R2_72: <= 0
 R2_73: 11 R{0,0} + 11 R{0,1} + 11 R{0,2} + 11 R{0,8} + 11 R{0,9}
   + 11 R{0,10} + 11 R{0,11} + 11 R{0,13} + 11 R{0,16} + 11 R{0,17}
   + 11 R{0,19} + 11 R{0,20} + 11 R{0,22} + 11 R{0,24} <= 11
 R2_74: 5 R{5,1} + 5 R{5,2} + 5 R{5,3} + 5 R{5,6} + 5 R{5,7} + 5 R{5,8}
   + 5 R{5,9} + 5 R{5,10} + 5 R{5,12} + 5 R{5,15} + 5 R{5,16} <= 5
 R2_75: 8 R{6,1} + 8 R{6,2} + 8 R{6,3} + 8 R{6,4} + 8 R{6,5} + 8 R{6,7}
   + 8 R{6,8} + 8 R{6,10} + 8 R{6,12} + 8 R{6,13} + 8 R{6,14} + 8 R{6,16}
   + 8 R{6,17} + 8 R{6,21} + 8 R{6,22} + 8 R{6,23} <= 8
 R2_76: 12 R{0,4} + 12 R{0,5} + 12 R{0,7} + 12 R{0,12} + 12 R{2,10}
   + 12 R{2,14} + 12 R{2,15} + 12 R{3,9} + 12 R{3,12} + 12 R{3,13}
   + 12 R{5,6} + 12 R{5,9} + 12 R{5,10} + 12 R{5,11} + 12 R{5,12}
   + 12 R{5,13} + 12 R{5,15} + 12 R{5,16} + 12 R{6,10} + 12 R{6,18} <= 12
 R2_77: 7 R{0,1} + 7 R{0,2} + 7 R{0,5} + 7 R{0,7} + 7 R{0,9} + 7 R{0,10}
   + 7 R{0,11} + 7 R{0,25} + 7 R{1,2} + 7 R{1,3} + 7 R{1,8} + 7 R{2,2}
   + 7 R{2,3} + 7 R{2,6} + 7 R{2,10} + 7 R{3,6} + 7 R{4,2} + 7 R{4,4}
   + 7 R{4,8} + 7 R{4,14} + 7 R{4,15} + 7 R{4,23} + 7 R{4,25} + 7 R{4,28}
   + 7 R{5,2} + 7 R{5,3} + 7 R{5,6} + 7 R{5,9} + 7 R{5,10} + 7 R{5,11}
   + 7 R{5,15} + 7 R{6,2} + 7 R{6,3} + 7 R{6,5} + 7 R{6,8} + 7 R{6,12}
   + 7 R{6,13} + 7 R{6,14} + 7 R{6,22} <= 7
Bounds
End
